(set-logic ALL)
(declare-fun var0 () String)
(assert (str.in_re var0 (re.++ (re.union (re.+ (str.to_re "000")) (re.+ (str.to_re "1"))) (re.++ (re.* (re.* (str.to_re "2"))) (re.++ (re.+ (re.* (str.to_re "333"))) (re.++ (re.* (re.* (str.to_re "4"))) (re.++ (re.* (re.* (str.to_re "555"))) (re.++ (re.+ (re.* (str.to_re "66"))) (re.++ (re.union (re.+ (str.to_re "77")) (re.+ (str.to_re "888"))) (re.++ (re.+ (re.union (str.to_re "9") (str.to_re "aa"))) (re.++ (re.+ (re.union (str.to_re "bbb") (str.to_re "c"))) (re.++ (re.+ (re.union (str.to_re "dd") (str.to_re "e"))) (re.++ (re.* (re.union (str.to_re "fff") (str.to_re "g"))) (re.++ (re.* (re.* (str.to_re "hh"))) (re.++ (re.* (re.+ (str.to_re "ii"))) (re.++ (re.* (re.* (str.to_re "jj"))) (re.++ (re.* (re.* (str.to_re "k"))) (re.++ (re.+ (re.union (str.to_re "l") (str.to_re "mmm"))) (re.++ (re.union (re.+ (str.to_re "nn")) (re.+ (str.to_re "oo"))) (re.++ (re.union (re.union (str.to_re "pp") (str.to_re "q")) (re.union (str.to_re "r") (str.to_re "s"))) (re.++ (re.+ (re.union (str.to_re "t") (str.to_re "uuu"))) (re.++ (re.+ (re.* (str.to_re "vvv"))) (re.++ (re.union (re.* (str.to_re "ww")) (re.* (str.to_re "xx"))) (re.++ (re.+ (re.+ (str.to_re "yyy"))) (re.++ (re.* (re.+ (str.to_re "zzz"))) (re.++ (re.+ (re.union (str.to_re "A") (str.to_re "BB"))) (re.union (re.* (str.to_re "C")) (re.* (str.to_re "D")))))))))))))))))))))))))))))
(check-sat)